
  22   10
  10   10   10   10   10   10   10   10   10   10

   0   0   0   0   0   0   0   0   0   0   0   3 2 3 5 
   8  10  10  10  10  10  10  10  10  10  10   2 7 4 
  10  10  10  10  10  10  10  10  10  10  10   2 7 4 
   9  10  10  10  10  10  10  10  10  10  10   2 8 6 
   8  10  10  10  10  10  10  10  10  10  10   2 8 6 
   9  10  10  10  10  10  10  10  10  10  10   2 11 9 
   9  10  10  10  10  10  10  10  10  10  10   2 11 9 
   4  10  10  10  10  10  10  10  10  10  10   1 9 
   8  10  10  10  10  10  10  10  10  10  10   2 12 10 
   4  10  10  10  10  10  10  10  10  10  10   2 14 13 
   1  10  10  10  10  10  10  10  10  10  10   2 14 13 
   2  10  10  10  10  10  10  10  10  10  10   2 15 14 
   6  10  10  10  10  10  10  10  10  10  10   1 15 
   2  10  10  10  10  10  10  10  10  10  10   3 21 18 17 
   7  10  10  10  10  10  10  10  10  10  10   2 20 16 
   6  10  10  10  10  10  10  10  10  10  10   2 21 17 
   1  10  10  10  10  10  10  10  10  10  10   1 19 
   8  10  10  10  10  10  10  10  10  10  10   1 20 
   4  10  10  10  10  10  10  10  10  10  10   1 22
   3  10  10  10  10  10  10  10  10  10  10   1 22
   5  10  10  10  10  10  10  10  10  10  10   1 22
   0   0   0   0   0   0   0   0   0   0   0   0 
